sat
(:cnf-encoding-aux-vars 6
 :eliminated-vars       103
 :max-memory            18.64
 :memory                18.26
 :nlsat-conflicts       10
 :nlsat-decisions       22
 :nlsat-learned-added   9
 :nlsat-propagations    87
 :nlsat-stages          16
 :num-allocs            14514
 :rlimit-count          26710
 :time                  0.01
 :total-time            0.02)
